data;
param n:=50;
param w:=1 -33 2 -235 3 160 4 66 5 67 6 -25 7 95 8 -77 9 120 10 167 11 107 12 -185 13 -178 14 -82 15 -133 16 -176 17 38 18 -86 19 89 20 174 21 -224 22 -141 23 -91 24 190 25 -182 26 149 27 -211 28 66 29 -77 30 121 31 -52 32 166 33 141 34 231 35 -189 36 195 37 231 38 46 39 97 40 195 41 -228 42 120 43 -140 44 63 45 -140 46 93 47 -98 48 39 49 -50 50 -193;
